NAME : swiss42-R-3-0-a.2256.tour
COMMENT : Length = 2256
COMMENT : Found by LKH-3 [Keld Helsgaun] Tue Jul 30 13:14:22 2024
TYPE : TOUR
DIMENSION : 42
TOUR_SECTION
1
33
31
30
23
41
42
12
5
27
6
17
18
37
32
21
3
4
2
8
38
15
14
13
26
9
40
25
22
10
24
11
19
7
20
16
36
34
35
39
29
28
-1
EOF
